Test: battleship-12-12-unsat.cnf
Options: -no-inverting-opt -activity-look-freq=1
WARNING: for repeatability, setting FPU to use double precision
============================[ Problem Statistics ]=============================
|                                                                             |
|  Number of symmetries:           10                                         |
|  Number of invertingSyms:         0                                         |
|  Number of variables:           144                                         |
|  Number of clauses:             936                                         |
|  Parse time:                   0.00 s                                       |
|                                                                             |
============================[ Search Statistics ]==============================
| Conflicts |          ORIGINAL         |          LEARNT          | Progress |
|           |    Vars  Clauses Literals |    Limit  Clauses Lit/Cl |          |
===============================================================================
|       100 |     144      936     3312 |      343      111     43 |  0.005 % |
|       250 |     144      936     3312 |      377      263     38 |  0.005 % |
|       475 |     144      936     3312 |      415      291     33 |  0.005 % |
|       812 |     144      936     3312 |      456      259     28 |  0.005 % |
|      1318 |     144      936     3312 |      502      362     36 |  0.005 % |
|      2077 |     144      936     3312 |      552      359     32 |  0.005 % |
|      3216 |     144      936     3312 |      607      393     31 |  0.005 % |
|      4924 |     144      936     3312 |      668      336     26 |  0.005 % |
|      7486 |     144      936     3312 |      735      516     31 |  0.005 % |
|     11330 |     144      936     3312 |      809      561     25 |  0.005 % |
|     17096 |     144      936     3312 |      890      498     29 |  0.005 % |
===============================================================================
restarts              : 77
conflicts             : 21522          (37889 /sec)
symconflicts          : 427            (752 /sec)
decisions             : 31019          (0.00 % random) (54608 /sec)
propagations          : 1569895        (2763729 /sec)
sympropagations       : 2903           (5111 /sec)
conflict literals     : 777061         (6.31 % deleted)
literals     : 777061         (6.31 % deleted)

HEURISTIC USAGES
random                : 0           
activity w/ lookahead : 31019       
activity no lookahead : 0           
original sp           : 0           
sym count             : 0           

Memory used           : 5.00 MB
CPU time              : 0.568035 s

UNSATISFIABLE
